11
0 18 78 94 23 32 28 59 54 37 91
51 0 95 46 29 89 20 66 66 55 59
58 66 0 80 36 44 29 39 66 90 69
33 43 86 0 87 50 53 34 20 38 21
55 94 72 73 0 74 60 60 74 46 88
15 47 97 79 71 0 62 16 45 93 94
36 70 65 73 42 76 0 65 49 32 95
23 90 67 65 37 73 46 0 97 65 32
98 79 25 35 19 42 79 24 0 23 100
50 64 64 30 17 16 79 99 37 0 45
33 27 17 64 63 84 33 16 53 42 0
